results_rootrelaxation/bin012_090_013.srr.sol
solution status: optimal solution found
objective value:                     33.6666666666667
_var772_                           0.0769230769230754 	(obj:3)
_var778_                            0.512820512820514 	(obj:3)
_var790_                            0.282051282051281 	(obj:4)
_var830_                            0.589743589743589 	(obj:1)
_var837_                            0.153846153846153 	(obj:5)
_var842_                           0.0769230769230772 	(obj:3)
_var845_                            0.282051282051282 	(obj:4)
_var853_                            0.384615384615383 	(obj:2)
_var860_                            0.282051282051282 	(obj:3)
_var861_                            0.230769230769232 	(obj:2)
_var864_                            0.410256410256411 	(obj:2)
_var868_                            0.051282051282051 	(obj:3)
_var870_                           0.0256410256410269 	(obj:5)
_var871_                            0.102564102564104 	(obj:4)
_var878_                            0.230769230769234 	(obj:4)
_var883_                            0.102564102564103 	(obj:2)
_var884_                            0.512820512820511 	(obj:3)
_var887_                           0.0769230769230757 	(obj:3)
_var891_                           0.0769230769230775 	(obj:4)
_var892_                            0.128205128205128 	(obj:5)
_var893_                            0.128205128205128 	(obj:3)
_var894_                           0.0256410256410264 	(obj:2)
_var895_                            0.051282051282051 	(obj:3)
_var909_                            0.512820512820514 	(obj:3)
_var910_                            0.102564102564102 	(obj:3)
_var916_                            0.589743589743589 	(obj:2)
_var917_                            0.333333333333336 	(obj:3)
_var924_                            0.435897435897436 	(obj:4)
_var926_                            0.384615384615387 	(obj:3)
_var928_                           0.0512820512820529 	(obj:3)
_var929_                            0.384615384615385 	(obj:2)
_var935_                           0.0769230769230754 	(obj:4)
_var938_                           0.0512820512820501 	(obj:2)
_var941_                            0.307692307692305 	(obj:3)
_var946_                            0.102564102564104 	(obj:5)
_var947_                           0.0256410256410236 	(obj:3)
_var952_                           0.0769230769230772 	(obj:3)
_var953_                            0.384615384615384 	(obj:3)
_var954_                            0.179487179487177 	(obj:4)
_var956_                            0.410256410256411 	(obj:3)
_var957_                            0.384615384615386 	(obj:5)
_var964_                            0.410256410256411 	(obj:4)
_var966_                           0.0512820512820477 	(obj:5)
_var968_                            0.102564102564102 	(obj:2)
_var971_                           0.0256410256410282 	(obj:4)
_var972_                            0.076923076923078 	(obj:3)
_var978_                            0.153846153846154 	(obj:5)
_var981_                           0.0256410256410259 	(obj:2)
_var982_                            0.307692307692308 	(obj:3)
_var987_                            0.025641025641028 	(obj:3)
_var989_                            0.102564102564102 	(obj:3)
_var992_                           0.0512820512820493 	(obj:3)
_var993_                           0.0256410256410264 	(obj:3)
_var997_                           0.0512820512820493 	(obj:4)
