results_rootrelaxation/bin012_090_013.srr.log
SCIP version 8.0.3.5 [precision: 8 byte] [memory: block] [mode: optimized] [LP solver: Soplex 6.0.1.3] [GitHash: 438792519e]
Copyright (c) 2002-2023 Zuse Institute Berlin (ZIB)

External libraries: 
  Readline 8.1         GNU library for command line editing (gnu.org/s/readline)
  Soplex 6.0.1.3       Linear Programming Solver developed at Zuse Institute Berlin (soplex.zib.de) [GitHash: 713be0fe]
  CppAD 20180000.0     Algorithmic Differentiation of C++ algorithms developed by B. Bell (github.com/coin-or/CppAD)
  ZLIB 1.2.11          General purpose compression library by J. Gailly and M. Adler (zlib.net)
  bliss 0.77           Computing Graph Automorphism Groups by T. Junttila and P. Kaski (www.tcs.hut.fi/Software/bliss/)

user parameter file <scip.set> not found - using default parameters

srr/relaxation = TRUE

read problem <instances/bin012_090_013.srr>
============

Original problem: 
original problem has 0 variables (0 bin, 0 int, 0 impl, 0 cont) and 77 constraints

presolving:
presolving (1 rounds: 1 fast, 1 medium, 1 exhaustive):
 0 deleted vars, 0 deleted constraints, 0 added constraints, 0 tightened bounds, 0 added holes, 0 changed sides, 0 changed coefficients
 0 implications, 0 cliques
presolved problem has 0 variables (0 bin, 0 int, 0 impl, 0 cont) and 77 constraints
     77 constraints of type <linear>
Presolving Time: 0.00

 time | node  | left  |LP iter|LP it/n|mem/heur|mdpt |vars |cons |rows |cuts |sepa|confs|strbr|  dualbound   | primalbound  |  gap   | compl. 
  0.0s|     1 |     0 |     1 |     - |   710k |   0 |   1 |  77 |  77 |   0 |  0 |   0 |   0 |      --      |      --      |    Inf | unknown
r 0.1s|     1 |     0 |  1610 |     - |simplero|   0 | 760 |  77 |  77 |   0 |  0 |   0 |   0 |      --      | 4.554751e+01 |    Inf | unknown
r 0.1s|     1 |     0 |  1666 |     - |simplero|   0 | 771 |  77 |  77 |   0 |  0 |   0 |   0 |      --      | 4.480448e+01 |    Inf | unknown
r 0.1s|     1 |     0 |  1725 |     - |simplero|   0 | 782 |  77 |  77 |   0 |  0 |   0 |   0 |      --      | 4.314047e+01 |    Inf | unknown
r 0.1s|     1 |     0 |  1802 |     - |simplero|   0 | 793 |  77 |  77 |   0 |  0 |   0 |   0 |      --      | 4.176778e+01 |    Inf | unknown
r 0.1s|     1 |     0 |  1881 |     - |simplero|   0 | 804 |  77 |  77 |   0 |  0 |   0 |   0 |      --      | 4.048798e+01 |    Inf | unknown
r 0.1s|     1 |     0 |  1950 |     - |simplero|   0 | 815 |  77 |  77 |   0 |  0 |   0 |   0 |      --      | 3.925858e+01 |    Inf | unknown
r 0.1s|     1 |     0 |  2004 |     - |simplero|   0 | 826 |  77 |  77 |   0 |  0 |   0 |   0 |      --      | 3.836627e+01 |    Inf | unknown
r 0.1s|     1 |     0 |  2059 |     - |simplero|   0 | 837 |  77 |  77 |   0 |  0 |   0 |   0 |      --      | 3.751669e+01 |    Inf | unknown
r 0.1s|     1 |     0 |  2070 |     - |simplero|   0 | 837 |  77 |  77 |   0 |  0 |   0 |   0 |      --      | 3.745249e+01 |    Inf | unknown
r 0.1s|     1 |     0 |  2071 |     - |simplero|   0 | 837 |  77 |  77 |   0 |  0 |   0 |   0 |      --      | 3.745190e+01 |    Inf | unknown
r 0.1s|     1 |     0 |  2116 |     - |simplero|   0 | 848 |  77 |  77 |   0 |  0 |   0 |   0 |      --      | 3.706412e+01 |    Inf | unknown
r 0.1s|     1 |     0 |  2143 |     - |simplero|   0 | 848 |  77 |  77 |   0 |  0 |   0 |   0 |      --      | 3.687707e+01 |    Inf | unknown
r 0.1s|     1 |     0 |  2184 |     - |simplero|   0 | 859 |  77 |  77 |   0 |  0 |   0 |   0 |      --      | 3.657052e+01 |    Inf | unknown
r 0.1s|     1 |     0 |  2195 |     - |simplero|   0 | 859 |  77 |  77 |   0 |  0 |   0 |   0 |      --      | 3.654547e+01 |    Inf | unknown
 time | node  | left  |LP iter|LP it/n|mem/heur|mdpt |vars |cons |rows |cuts |sepa|confs|strbr|  dualbound   | primalbound  |  gap   | compl. 
r 0.1s|     1 |     0 |  2243 |     - |simplero|   0 | 870 |  77 |  77 |   0 |  0 |   0 |   0 |      --      | 3.621093e+01 |    Inf | unknown
r 0.1s|     1 |     0 |  2272 |     - |simplero|   0 | 870 |  77 |  77 |   0 |  0 |   0 |   0 |      --      | 3.613338e+01 |    Inf | unknown
r 0.1s|     1 |     0 |  2273 |     - |simplero|   0 | 870 |  77 |  77 |   0 |  0 |   0 |   0 |      --      | 3.613334e+01 |    Inf | unknown
r 0.1s|     1 |     0 |  2315 |     - |simplero|   0 | 881 |  77 |  77 |   0 |  0 |   0 |   0 |      --      | 3.581047e+01 |    Inf | unknown
r 0.1s|     1 |     0 |  2322 |     - |simplero|   0 | 881 |  77 |  77 |   0 |  0 |   0 |   0 |      --      | 3.580476e+01 |    Inf | unknown
r 0.1s|     1 |     0 |  2340 |     - |simplero|   0 | 892 |  77 |  77 |   0 |  0 |   0 |   0 |      --      | 3.556204e+01 |    Inf | unknown
r 0.1s|     1 |     0 |  2360 |     - |simplero|   0 | 892 |  77 |  77 |   0 |  0 |   0 |   0 |      --      | 3.541464e+01 |    Inf | unknown
r 0.1s|     1 |     0 |  2373 |     - |simplero|   0 | 892 |  77 |  77 |   0 |  0 |   0 |   0 |      --      | 3.536603e+01 |    Inf | unknown
r 0.1s|     1 |     0 |  2425 |     - |simplero|   0 | 903 |  77 |  77 |   0 |  0 |   0 |   0 |      --      | 3.489105e+01 |    Inf | unknown
r 0.1s|     1 |     0 |  2440 |     - |simplero|   0 | 903 |  77 |  77 |   0 |  0 |   0 |   0 |      --      | 3.487025e+01 |    Inf | unknown
r 0.1s|     1 |     0 |  2474 |     - |simplero|   0 | 914 |  77 |  77 |   0 |  0 |   0 |   0 |      --      | 3.471778e+01 |    Inf | unknown
r 0.1s|     1 |     0 |  2476 |     - |simplero|   0 | 914 |  77 |  77 |   0 |  0 |   0 |   0 |      --      | 3.471719e+01 |    Inf | unknown
  0.1s|     1 |     0 |  2501 |     - |  4197k |   0 | 925 |  77 |  77 |   0 |  0 |   0 |   0 |      --      | 3.471719e+01 |    Inf | unknown
r 0.1s|     1 |     0 |  2501 |     - |simplero|   0 | 925 |  77 |  77 |   0 |  0 |   0 |   0 |      --      | 3.428571e+01 |    Inf | unknown
r 0.1s|     1 |     0 |  2540 |     - |simplero|   0 | 925 |  77 |  77 |   0 |  0 |   0 |   0 |      --      | 3.427273e+01 |    Inf | unknown
 time | node  | left  |LP iter|LP it/n|mem/heur|mdpt |vars |cons |rows |cuts |sepa|confs|strbr|  dualbound   | primalbound  |  gap   | compl. 
r 0.1s|     1 |     0 |  2553 |     - |simplero|   0 | 925 |  77 |  77 |   0 |  0 |   0 |   0 |      --      | 3.424791e+01 |    Inf | unknown
r 0.1s|     1 |     0 |  2600 |     - |simplero|   0 | 936 |  77 |  77 |   0 |  0 |   0 |   0 |      --      | 3.409063e+01 |    Inf | unknown
r 0.1s|     1 |     0 |  2623 |     - |simplero|   0 | 946 |  77 |  77 |   0 |  0 |   0 |   0 |      --      | 3.398865e+01 |    Inf | unknown
r 0.1s|     1 |     0 |  2627 |     - |simplero|   0 | 946 |  77 |  77 |   0 |  0 |   0 |   0 |      --      | 3.398611e+01 |    Inf | unknown
r 0.1s|     1 |     0 |  2650 |     - |simplero|   0 | 957 |  77 |  77 |   0 |  0 |   0 |   0 |      --      | 3.390000e+01 |    Inf | unknown
r 0.1s|     1 |     0 |  2681 |     - |simplero|   0 | 966 |  77 |  77 |   0 |  0 |   0 |   0 |      --      | 3.379365e+01 |    Inf | unknown
r 0.1s|     1 |     0 |  2690 |     - |simplero|   0 | 974 |  77 |  77 |   0 |  0 |   0 |   0 |      --      | 3.375000e+01 |    Inf | unknown
r 0.1s|     1 |     0 |  2701 |     - |simplero|   0 | 978 |  77 |  77 |   0 |  0 |   0 |   0 |      --      | 3.374118e+01 |    Inf | unknown
r 0.1s|     1 |     0 |  2717 |     - |simplero|   0 | 984 |  77 |  77 |   0 |  0 |   0 |   0 |      --      | 3.371429e+01 |    Inf | unknown
r 0.1s|     1 |     0 |  2731 |     - |simplero|   0 | 991 |  77 |  77 |   0 |  0 |   0 |   0 |      --      | 3.368421e+01 |    Inf | unknown
r 0.1s|     1 |     0 |  2740 |     - |simplero|   0 | 999 |  77 |  77 |   0 |  0 |   0 |   0 |      --      | 3.366667e+01 |    Inf | unknown
  0.1s|     1 |     0 |  2740 |     - |  5027k |   0 | 999 |  77 |  77 |   0 |  0 |   0 |   0 | 3.366667e+01 | 3.366667e+01 |   0.00%| unknown
  0.1s|     1 |     0 |  2740 |     - |  5027k |   0 | 999 |  77 |  77 |   0 |  0 |   0 |   0 | 3.366667e+01 | 3.366667e+01 |   0.00%| unknown

SCIP Status        : problem is solved [optimal solution found]
Solving Time (sec) : 0.11
Solving Nodes      : 1
Primal Bound       : +3.36666666666667e+01 (39 solutions)
Dual Bound         : +3.36666666666667e+01
Gap                : 0.00 %

written transformed problem to file <results_rootrelaxation/bin012_090_013.srr.lp>
written transformed problem to file <results_rootrelaxation/bin012_090_013.srr.cip>

written solution information to file <results_rootrelaxation/bin012_090_013.srr.sol>



